<number of tasks>
250

<cycle time>
1000

<order strength>
0.216


<task times>
1 92
2 61
3 264
4 197
5 119
6 194
7 72
8 243
9 188
10 40
11 216
12 134
13 89
14 203
15 28
16 94
17 179
18 143
19 252
20 94
21 156
22 167
23 201
24 144
25 60
26 157
27 231
28 33
29 54
30 125
31 84
32 161
33 34
34 30
35 94
36 100
37 158
38 253
39 336
40 152
41 76
42 159
43 82
44 90
45 119
46 31
47 117
48 60
49 312
50 202
51 89
52 53
53 68
54 343
55 133
56 294
57 154
58 329
59 89
60 301
61 275
62 143
63 22
64 209
65 89
66 126
67 172
68 226
69 33
70 75
71 155
72 198
73 102
74 220
75 111
76 74
77 168
78 272
79 153
80 255
81 100
82 158
83 24
84 241
85 244
86 44
87 159
88 70
89 27
90 48
91 174
92 207
93 211
94 152
95 190
96 129
97 100
98 203
99 187
100 80
101 148
102 52
103 127
104 178
105 28
106 155
107 351
108 159
109 226
110 91
111 210
112 104
113 109
114 174
115 61
116 230
117 187
118 141
119 45
120 124
121 222
122 116
123 145
124 84
125 22
126 96
127 143
128 33
129 105
130 31
131 26
132 206
133 51
134 46
135 99
136 157
137 139
138 219
139 135
140 69
141 208
142 264
143 74
144 23
145 316
146 204
147 73
148 220
149 34
150 41
151 145
152 107
153 60
154 96
155 189
156 233
157 77
158 112
159 135
160 47
161 93
162 22
163 180
164 166
165 208
166 84
167 21
168 237
169 193
170 203
171 120
172 168
173 299
174 143
175 148
176 280
177 102
178 22
179 93
180 91
181 131
182 147
183 276
184 96
185 134
186 217
187 258
188 44
189 21
190 20
191 59
192 308
193 140
194 183
195 35
196 78
197 262
198 126
199 67
200 39
201 133
202 121
203 76
204 147
205 141
206 76
207 171
208 121
209 274
210 226
211 263
212 130
213 211
214 130
215 181
216 144
217 285
218 104
219 91
220 163
221 176
222 83
223 84
224 58
225 203
226 124
227 222
228 143
229 221
230 259
231 234
232 68
233 140
234 69
235 206
236 84
237 70
238 183
239 144
240 73
241 25
242 25
243 53
244 42
245 64
246 139
247 158
248 119
249 105
250 52

<precedence relations>
1,48
2,146
3,146
4,108
5,108
6,212
7,212
8,19
9,20
9,21
10,15
10,18
10,22
10,24
12,14
13,16
13,17
13,23
14,48
15,146
16,108
17,139
18,139
19,25
20,29
21,31
22,28
22,30
22,33
23,27
23,32
23,34
24,26
25,48
26,48
27,212
28,213
29,39
30,41
31,40
32,35
32,38
32,44
33,36
34,37
34,42
34,43
34,45
34,46
34,47
35,48
36,48
37,212
38,212
39,52
40,53
41,55
42,51
42,54
42,59
43,56
44,57
45,50
45,58
46,49
48,60
48,61
48,62
48,63
48,64
48,65
48,66
48,67
48,68
48,69
48,70
48,71
48,72
48,73
48,74
49,139
50,139
51,77
52,80
53,75
54,78
55,75
56,79
57,76
57,81
61,91
63,89
68,83
68,92
70,93
72,85
73,90
74,94
75,139
76,84
77,86
78,87
79,88
81,82
82,108
83,212
84,101
85,99
86,98
86,104
86,105
88,97
89,100
90,106
92,95
92,96
92,107
94,102
94,103
95,146
96,108
97,108
98,213
99,112
100,116
101,113
101,115
102,114
103,110
103,117
107,109
107,111
108,118
108,119
108,120
108,121
108,122
108,123
108,124
108,125
108,126
108,127
108,128
109,212
110,213
111,213
112,129
113,130
114,131
115,132
116,133
117,134
117,135
122,138
128,137
129,139
130,136
131,141
132,142
133,136
134,140
134,143
134,145
135,144
136,146
137,212
138,212
139,149
139,150
139,151
139,152
139,153
139,154
139,155
139,156
139,157
139,158
139,159
139,160
139,161
140,162
141,147
144,148
145,163
145,164
146,165
146,166
146,167
146,168
146,169
146,170
146,171
146,172
146,173
146,174
146,175
147,212
148,213
149,177
149,178
162,176
164,179
165,181
165,182
171,185
172,183
174,180
174,184
176,212
177,212
180,212
181,186
182,187
184,189
184,190
185,188
185,191
186,192
187,193
188,194
188,198
189,195
190,196
191,197
191,199
192,207
193,204
194,205
195,203
195,209
195,210
196,200
196,206
197,208
198,211
199,201
199,202
200,212
201,213
202,213
203,214
204,217
205,216
206,215
208,218
208,221
209,219
210,220
211,222
212,223
212,224
212,225
212,226
212,227
212,228
212,229
213,230
213,231
213,232
213,233
213,234
213,235
213,236
213,237
213,238
214,241
215,242
216,239
218,240
223,245
234,247
236,246
239,243
240,244
243,248
244,249
245,250

<end>
